ssat_solver_solve2
#level: 2
Abc_NtkNodeNum(s->pNtk): 1366  , BDD limit: 10240
level 1: 15 element
Exist
existence_eliminate_scope
Abc_NtkIsBddLogic(pNtk): 0
Abc_NtkIsStrash(pNtk): 1
existence_eliminate_scope_aig
exist by BDD failed
Abc_NtkNodeNum(s->pNtk): 997359  , BDD limit: 1196830
Build BDD success
level 0: 15 element
Random
c ssat solving in ABC
#var: 30
s SATISFIABLE
  > Upper bound = 9.832764e-01
  > Lower bound = 9.832764e-01
FINISHED CPU 23.63 MEM 229496 MAXMEM 229496 STALE 0 MAXMEM_RSS 182292
<time name="ALL">23730</time>
real 23.88
user 27.58
sys 10.22
